c colouring generated by benchmark framework
p edge 1000 246708
v 1 59
v 2 47
v 3 48
v 4 44
v 5 52
v 6 98
v 7 30
v 8 110
v 9 88
v 10 23
v 11 27
v 12 61
v 13 72
v 14 91
v 15 52
v 16 57
v 17 138
v 18 15
v 19 80
v 20 45
v 21 75
v 22 58
v 23 17
v 24 17
v 25 5
v 26 41
v 27 60
v 28 5
v 29 91
v 30 36
v 31 82
v 32 33
v 33 102
v 34 107
v 35 16
v 36 9
v 37 76
v 38 92
v 39 31
v 40 73
v 41 39
v 42 55
v 43 85
v 44 6
v 45 55
v 46 37
v 47 23
v 48 9
v 49 50
v 50 58
v 51 18
v 52 84
v 53 85
v 54 82
v 55 13
v 56 70
v 57 44
v 58 18
v 59 47
v 60 34
v 61 92
v 62 28
v 63 115
v 64 87
v 65 7
v 66 105
v 67 108
v 68 38
v 69 31
v 70 7
v 71 20
v 72 6
v 73 13
v 74 105
v 75 139
v 76 81
v 77 13
v 78 93
v 79 6
v 80 48
v 81 38
v 82 56
v 83 70
v 84 23
v 85 98
v 86 84
v 87 25
v 88 9
v 89 71
v 90 78
v 91 54
v 92 118
v 93 52
v 94 67
v 95 52
v 96 28
v 97 111
v 98 45
v 99 0
v 100 74
v 101 1
v 102 112
v 103 8
v 104 6
v 105 57
v 106 48
v 107 32
v 108 4
v 109 73
v 110 37
v 111 54
v 112 4
v 113 59
v 114 21
v 115 104
v 116 65
v 117 57
v 118 94
v 119 59
v 120 137
v 121 56
v 122 22
v 123 135
v 124 21
v 125 110
v 126 115
v 127 136
v 128 94
v 129 2
v 130 11
v 131 0
v 132 26
v 133 137
v 134 14
v 135 17
v 136 9
v 137 46
v 138 110
v 139 99
v 140 51
v 141 7
v 142 19
v 143 13
v 144 15
v 145 25
v 146 54
v 147 35
v 148 5
v 149 63
v 150 87
v 151 90
v 152 32
v 153 23
v 154 114
v 155 47
v 156 56
v 157 119
v 158 108
v 159 91
v 160 104
v 161 71
v 162 2
v 163 104
v 164 16
v 165 10
v 166 35
v 167 22
v 168 96
v 169 71
v 170 1
v 171 0
v 172 35
v 173 113
v 174 116
v 175 90
v 176 45
v 177 53
v 178 111
v 179 114
v 180 77
v 181 26
v 182 59
v 183 140
v 184 117
v 185 60
v 186 55
v 187 8
v 188 36
v 189 66
v 190 24
v 191 61
v 192 24
v 193 39
v 194 73
v 195 6
v 196 77
v 197 3
v 198 80
v 199 39
v 200 25
v 201 108
v 202 72
v 203 112
v 204 26
v 205 103
v 206 10
v 207 93
v 208 97
v 209 67
v 210 3
v 211 40
v 212 93
v 213 45
v 214 30
v 215 75
v 216 111
v 217 74
v 218 92
v 219 85
v 220 98
v 221 131
v 222 87
v 223 11
v 224 88
v 225 119
v 226 34
v 227 73
v 228 100
v 229 76
v 230 99
v 231 72
v 232 19
v 233 59
v 234 113
v 235 43
v 236 16
v 237 103
v 238 120
v 239 92
v 240 68
v 241 12
v 242 128
v 243 16
v 244 39
v 245 20
v 246 124
v 247 64
v 248 36
v 249 20
v 250 30
v 251 130
v 252 40
v 253 29
v 254 59
v 255 21
v 256 61
v 257 31
v 258 25
v 259 12
v 260 48
v 261 136
v 262 99
v 263 46
v 264 51
v 265 24
v 266 10
v 267 60
v 268 44
v 269 66
v 270 51
v 271 69
v 272 29
v 273 17
v 274 108
v 275 50
v 276 102
v 277 19
v 278 75
v 279 69
v 280 14
v 281 47
v 282 131
v 283 89
v 284 125
v 285 121
v 286 57
v 287 19
v 288 6
v 289 40
v 290 96
v 291 19
v 292 106
v 293 43
v 294 41
v 295 74
v 296 14
v 297 40
v 298 67
v 299 132
v 300 11
v 301 59
v 302 58
v 303 105
v 304 69
v 305 40
v 306 27
v 307 29
v 308 64
v 309 133
v 310 9
v 311 25
v 312 75
v 313 95
v 314 49
v 315 69
v 316 121
v 317 58
v 318 85
v 319 138
v 320 1
v 321 90
v 322 48
v 323 30
v 324 55
v 325 71
v 326 77
v 327 69
v 328 20
v 329 68
v 330 44
v 331 70
v 332 8
v 333 50
v 334 141
v 335 76
v 336 74
v 337 86
v 338 78
v 339 52
v 340 105
v 341 2
v 342 0
v 343 54
v 344 15
v 345 87
v 346 69
v 347 62
v 348 110
v 349 33
v 350 10
v 351 38
v 352 6
v 353 101
v 354 71
v 355 50
v 356 8
v 357 60
v 358 98
v 359 122
v 360 104
v 361 3
v 362 91
v 363 56
v 364 38
v 365 117
v 366 21
v 367 1
v 368 82
v 369 98
v 370 61
v 371 74
v 372 58
v 373 89
v 374 77
v 375 41
v 376 13
v 377 13
v 378 134
v 379 36
v 380 67
v 381 2
v 382 84
v 383 86
v 384 108
v 385 4
v 386 40
v 387 51
v 388 118
v 389 22
v 390 10
v 391 99
v 392 91
v 393 18
v 394 11
v 395 55
v 396 113
v 397 53
v 398 62
v 399 78
v 400 96
v 401 20
v 402 129
v 403 28
v 404 35
v 405 43
v 406 10
v 407 38
v 408 90
v 409 95
v 410 88
v 411 90
v 412 142
v 413 22
v 414 34
v 415 24
v 416 62
v 417 15
v 418 82
v 419 89
v 420 66
v 421 37
v 422 90
v 423 27
v 424 108
v 425 97
v 426 76
v 427 46
v 428 65
v 429 12
v 430 33
v 431 79
v 432 14
v 433 66
v 434 0
v 435 37
v 436 68
v 437 39
v 438 140
v 439 64
v 440 27
v 441 94
v 442 109
v 443 78
v 444 116
v 445 81
v 446 16
v 447 47
v 448 12
v 449 77
v 450 24
v 451 30
v 452 16
v 453 126
v 454 14
v 455 94
v 456 38
v 457 89
v 458 15
v 459 26
v 460 16
v 461 48
v 462 28
v 463 72
v 464 6
v 465 134
v 466 71
v 467 51
v 468 36
v 469 46
v 470 88
v 471 28
v 472 116
v 473 84
v 474 89
v 475 83
v 476 109
v 477 17
v 478 8
v 479 31
v 480 104
v 481 1
v 482 97
v 483 122
v 484 77
v 485 26
v 486 132
v 487 47
v 488 8
v 489 8
v 490 109
v 491 15
v 492 83
v 493 42
v 494 5
v 495 31
v 496 3
v 497 28
v 498 23
v 499 7
v 500 120
v 501 52
v 502 12
v 503 65
v 504 48
v 505 86
v 506 33
v 507 133
v 508 35
v 509 45
v 510 93
v 511 18
v 512 83
v 513 34
v 514 7
v 515 103
v 516 26
v 517 84
v 518 68
v 519 67
v 520 113
v 521 40
v 522 7
v 523 10
v 524 41
v 525 68
v 526 5
v 527 4
v 528 39
v 529 81
v 530 31
v 531 129
v 532 91
v 533 11
v 534 71
v 535 15
v 536 67
v 537 83
v 538 80
v 539 3
v 540 91
v 541 102
v 542 94
v 543 122
v 544 3
v 545 53
v 546 102
v 547 34
v 548 19
v 549 58
v 550 72
v 551 93
v 552 1
v 553 53
v 554 23
v 555 13
v 556 4
v 557 84
v 558 46
v 559 62
v 560 11
v 561 28
v 562 9
v 563 32
v 564 21
v 565 0
v 566 50
v 567 141
v 568 51
v 569 95
v 570 142
v 571 29
v 572 58
v 573 115
v 574 42
v 575 44
v 576 11
v 577 65
v 578 97
v 579 39
v 580 113
v 581 55
v 582 73
v 583 7
v 584 73
v 585 1
v 586 9
v 587 27
v 588 66
v 589 38
v 590 53
v 591 127
v 592 18
v 593 33
v 594 100
v 595 21
v 596 58
v 597 72
v 598 53
v 599 126
v 600 63
v 601 85
v 602 30
v 603 65
v 604 83
v 605 81
v 606 110
v 607 112
v 608 42
v 609 124
v 610 75
v 611 80
v 612 86
v 613 0
v 614 101
v 615 29
v 616 16
v 617 3
v 618 79
v 619 68
v 620 32
v 621 60
v 622 5
v 623 1
v 624 88
v 625 95
v 626 72
v 627 93
v 628 51
v 629 102
v 630 55
v 631 89
v 632 81
v 633 28
v 634 127
v 635 43
v 636 140
v 637 61
v 638 105
v 639 74
v 640 130
v 641 75
v 642 23
v 643 88
v 644 53
v 645 113
v 646 52
v 647 5
v 648 63
v 649 100
v 650 101
v 651 101
v 652 35
v 653 33
v 654 106
v 655 19
v 656 88
v 657 24
v 658 49
v 659 115
v 660 112
v 661 37
v 662 102
v 663 134
v 664 54
v 665 68
v 666 74
v 667 56
v 668 135
v 669 123
v 670 25
v 671 87
v 672 50
v 673 70
v 674 50
v 675 27
v 676 34
v 677 45
v 678 60
v 679 42
v 680 46
v 681 70
v 682 11
v 683 103
v 684 32
v 685 7
v 686 9
v 687 34
v 688 32
v 689 21
v 690 86
v 691 99
v 692 40
v 693 55
v 694 31
v 695 65
v 696 85
v 697 75
v 698 19
v 699 56
v 700 42
v 701 139
v 702 125
v 703 72
v 704 49
v 705 123
v 706 135
v 707 49
v 708 47
v 709 20
v 710 14
v 711 45
v 712 123
v 713 62
v 714 100
v 715 37
v 716 132
v 717 111
v 718 121
v 719 12
v 720 85
v 721 53
v 722 107
v 723 15
v 724 87
v 725 84
v 726 105
v 727 30
v 728 46
v 729 6
v 730 118
v 731 41
v 732 126
v 733 61
v 734 2
v 735 108
v 736 63
v 737 69
v 738 33
v 739 11
v 740 48
v 741 133
v 742 16
v 743 95
v 744 5
v 745 91
v 746 43
v 747 64
v 748 111
v 749 82
v 750 34
v 751 126
v 752 63
v 753 33
v 754 37
v 755 8
v 756 41
v 757 42
v 758 71
v 759 89
v 760 78
v 761 42
v 762 117
v 763 63
v 764 67
v 765 79
v 766 83
v 767 37
v 768 80
v 769 46
v 770 2
v 771 57
v 772 60
v 773 79
v 774 4
v 775 99
v 776 62
v 777 23
v 778 36
v 779 84
v 780 43
v 781 12
v 782 55
v 783 43
v 784 70
v 785 27
v 786 42
v 787 7
v 788 65
v 789 44
v 790 101
v 791 38
v 792 90
v 793 8
v 794 107
v 795 26
v 796 68
v 797 47
v 798 7
v 799 4
v 800 40
v 801 3
v 802 20
v 803 63
v 804 52
v 805 85
v 806 60
v 807 62
v 808 92
v 809 27
v 810 14
v 811 39
v 812 33
v 813 25
v 814 104
v 815 80
v 816 13
v 817 53
v 818 47
v 819 66
v 820 24
v 821 18
v 822 12
v 823 101
v 824 82
v 825 139
v 826 127
v 827 22
v 828 132
v 829 19
v 830 42
v 831 54
v 832 21
v 833 85
v 834 80
v 835 56
v 836 74
v 837 80
v 838 72
v 839 13
v 840 22
v 841 136
v 842 36
v 843 77
v 844 38
v 845 62
v 846 118
v 847 4
v 848 137
v 849 67
v 850 109
v 851 24
v 852 70
v 853 79
v 854 116
v 855 95
v 856 106
v 857 30
v 858 18
v 859 22
v 860 102
v 861 23
v 862 100
v 863 58
v 864 52
v 865 29
v 866 49
v 867 106
v 868 3
v 869 65
v 870 115
v 871 2
v 872 57
v 873 17
v 874 75
v 875 98
v 876 29
v 877 64
v 878 56
v 879 31
v 880 39
v 881 74
v 882 48
v 883 81
v 884 31
v 885 16
v 886 47
v 887 33
v 888 41
v 889 37
v 890 16
v 891 76
v 892 80
v 893 125
v 894 15
v 895 96
v 896 103
v 897 10
v 898 14
v 899 0
v 900 70
v 901 2
v 902 27
v 903 11
v 904 34
v 905 64
v 906 97
v 907 25
v 908 127
v 909 78
v 910 51
v 911 119
v 912 123
v 913 1
v 914 96
v 915 18
v 916 30
v 917 107
v 918 9
v 919 78
v 920 49
v 921 33
v 922 77
v 923 119
v 924 5
v 925 28
v 926 79
v 927 44
v 928 13
v 929 18
v 930 32
v 931 83
v 932 96
v 933 97
v 934 57
v 935 99
v 936 3
v 937 106
v 938 37
v 939 56
v 940 12
v 941 32
v 942 41
v 943 61
v 944 50
v 945 76
v 946 92
v 947 103
v 948 36
v 949 87
v 950 64
v 951 64
v 952 101
v 953 112
v 954 92
v 955 121
v 956 100
v 957 31
v 958 0
v 959 40
v 960 117
v 961 46
v 962 45
v 963 41
v 964 79
v 965 61
v 966 14
v 967 20
v 968 49
v 969 43
v 970 114
v 971 54
v 972 22
v 973 35
v 974 5
v 975 59
v 976 17
v 977 98
v 978 21
v 979 4
v 980 35
v 981 81
v 982 10
v 983 68
v 984 120
v 985 128
v 986 86
v 987 32
v 988 24
v 989 46
v 990 114
v 991 69
v 992 67
v 993 20
v 994 27
v 995 64
v 996 17
v 997 51
v 998 26
v 999 92
v 1000 57
